# 12575
param n := 25;
param s := 1;
set E :=  (0,17) (0,23) (1,3) (1,18) (1,23) (2,5) (4,11) (4,13) (5,9) (6,16) (7,9) (7,16) (7,17) (8,9) (8,19) (8,21) (9,14) (9,20) (10,17) (10,18) (12,17) (13,15) (13,22) (15,20) (16,24) (18,21) (19,23) (22,23);
